100
1000
150
0 0
-34 15
-34 15
-34 15
-34 15
-34 15
-34 15
-34 15
-34 15
-34 15
-34 15
-34 15
-34 15
-34 15
-34 15
-34 15
-6 15
-6 15
-6 15
-6 15
-6 15
-6 15
-6 15
-6 15
-6 15
-6 15
-6 15
-6 15
-6 15
-6 15
-6 15
-24 1
-24 1
-24 1
-24 1
-24 1
-24 1
-24 1
-24 1
-24 1
-24 1
-24 1
-24 1
-24 1
-24 1
-24 1
38 -13
38 -13
38 -13
38 -13
38 -13
38 -13
38 -13
38 -13
38 -13
38 -13
38 -13
38 -13
38 -13
38 -13
38 -13
13 6
13 6
13 6
13 6
13 6
13 6
13 6
13 6
13 6
13 6
13 6
13 6
13 6
13 6
13 6
17 -11
20 -40
10 -15
-22 -28
-9 -9
-19 40
-6 34
1 -10
20 -1
-11 15
7 -22
33 -5
-1 37
7 -10
-8 -21
17 -11
20 -40
10 -15
-22 -28
-9 -9
-19 40
-6 34
1 -10
20 -1
-11 15
7 -22
33 -5
-1 37
7 -10
-8 -21
17 -11
20 -40
10 -15
-22 -28
-9 -9
-19 40
-6 34
1 -10
20 -1
-11 15
7 -22
33 -5
-1 37
7 -10
-8 -21
17 -11
20 -40
10 -15
-22 -28
-9 -9
-19 40
-6 34
1 -10
20 -1
-11 15
7 -22
33 -5
-1 37
7 -10
-8 -21
17 -11
20 -40
10 -15
-22 -28
-9 -9
-19 40
-6 34
1 -10
20 -1
-11 15
7 -22
33 -5
-1 37
7 -10
-8 -21
0 0 
53
56
53
52
56
54
60
54
55
60
57
54
52
53
56
54
54
52
56
55
53
56
53
57
57
54
56
56
56
51
54
53
56
57
59
56
53
59
56
55
54
55
55
56
56
54
54
57
56
54
59
56
54
55
53
53
60
57
59
53
57
53
59
57
59
57
52
59
56
53
56
59
55
57
52
53
56
53
52
56
54
60
54
55
60
57
54
52
53
56
54
54
52
56
55
53
56
53
57
57
54
56
56
56
51
54
53
56
57
59
56
53
59
56
55
54
55
55
56
56
54
54
57
56
54
59
56
54
55
53
53
60
57
59
53
57
53
59
57
59
57
52
59
56
53
56
59
55
57
52
